import IApplication.dzn;
import Application.dzn;
import LiftSystem.dzn;
import SafetySystem.dzn;

component System 
{
    provides IApplication p;

    system {
        Application    app;
        
        LiftSystem     liftSystem;
        SafetySystem   safetySystem;

        p <=> app.p;

        app.rLift <=> liftSystem.p;
        app.rSafety <=> safetySystem.p;
    }
}